n_res = 4;
rcap = [26, 19, 65, 65];
rtype = [1, 1, 2, 2];
n_tasks = 16;
modes = [ {1, 2}, {3, 4}, {5, 6}, {7, 8}, {9, 10}, {11, 12}, {13, 14}, {15, 16}, {17, 18}, {19, 20}, {21, 22}, {23, 24}, {25, 26}, {27, 28}, {29, 30}, {31, 32} ];
succ = [ {7, 13, 14}, {7, 9}, {4, 5, 13}, {6, 7, 8}, {9}, {11, 16}, {12, 15}, {9, 10}, {11, 12}, {11, 12}, {14, 15}, {16}, {15, 16}, {}, {}, {} ];
n_opt = 32;
dur = [1, 4, 8, 8, 5, 9, 1, 6, 5, 7, 8, 9, 5, 8, 1, 10, 3, 7, 5, 5, 3, 4, 2, 9, 1, 3, 7, 10, 6, 7, 1, 8];
rreq = [|  5,  5,  1,  1,  5,  2,  6,  4,  8,  5,  9,  9,  6,  6, 10,  1,  9,  6,  5,  8,  6,  6, 10,  9, 10,  5,  5,  3,  8,  7,  5,  4
        |  6,  4,  5,  7,  5,  4,  6,  6,  4,  3,  2,  1,  8,  2,  6,  4,  6,  4,  6,  6,  9,  4,  4,  1,  6,  5,  4,  4,  3,  1,  6,  5
        |  0,  9,  0,  0,  0,  0,  7,  5,  0,  0,  1,  1, 10,  0,  0,  0,  3,  0,  4,  0,  0,  0,  0,  8,  2,  0,  9,  3,  5,  4,  7,  7
        |  4,  0,  8,  6,  5,  5,  0,  0,  6,  3,  0,  0,  0,  2,  8,  1,  0,  2,  0, 10,  7,  7,  6,  0,  0,  7,  0,  0,  0,  0,  0,  0 |];
